c Lingeling SAT Solver
c 
c Version ala b02aa1a04343558c4252b5f4a723be021964f652
c 
c Copyright (C) 2010-2012 Armin Biere JKU Linz Austria.
c All rights reserved.
c 
c released Sat Oct 13 14:05:26 CEST 2012
c compiled Sat Feb 16 02:48:12 EST 2013
c 
c gcc (Debian 4.4.5-8) 4.4.5
c -Wall -O3 -DNLGLOG -DNDEBUG -DNCHKSOL -DNLGLPICOSAT 
c Linux greencar2 2.6.32-5-amd64 x86_64
c 
c reading input file p19.cnf
c no embedded options
c found 'p cnf 223091 687910' header
c read 223091 variables, 687910 clauses, 1430803 literals in 0.0 seconds
c
c feature vars 223091
c feature lits.total 1430803
c feature lits.pos 763177
c feature lits.neg 667626
c feature clauses.total 687910
c feature clauses.unit 83623
c feature clauses.bin 484881
c feature clauses.trn 118006
c feature clauses.lrg 1400
c feature cog.val.min 1
c feature cog.val.avg 99401
c feature cog.val.max 214015
c feature cog.var.min 1
c feature cog.var.avg 111546
c feature cog.var.max 223090
c
c
c --abstime=0
c --acts=2
c --actavgmax=120
c --actstdmin=20
c --actstdmax=80
c --agile=23
c --bias=2
c --block=1
c --blkrtc=0
c --blkclslim=2000
c --blkocclim=2000
c --blkmaxeff=2147483647
c --blkmineff=10000000
c --blkreleff=20
c --card=0
c --cce=3
c --ccemaxeff=100000000
c --ccemineff=5000000
c --ccereleff=3
c --check=0
c --cgrclsr=1
c --cgrmaxority=20
c --cgrmaxeff=8000000
c --cgrmineff=200000
c --cgreleff=1
c --cgrexteq=1
c --cgrextand=1
c --cgrextunits=1
c --cgrextite=1
c --cgrextxor=1
c --cliff=1
c --cliffreleff=8
c --cliffmineff=10000000
c --cliffmaxeff=100000000
c --compact=0
c --decompose=1
c --defragint=10000000
c --defragfree=50
c --elim=1
c --elmrtc=0
c --elmblk=1
c --elmclslim=1000
c --elmocclim=1000
c --elmaxeff=100000000
c --elmineff=5000000
c --elmreleff=10
c --sleeponabort=0
c --exitonabort=0
c --flipping=1
c --flipint=2
c --flipdur=50
c --fliptop=1
c --force=0
c --gauss=1
c --gaussextrall=1
c --gaussmaxor=20
c --gaussexptrn=1
c --gaussmaxeff=50000000
c --gaussmineff=2000000
c --gaussreleff=2
c --gluescale=2
c --gluekeep=0
c --inprocessing=1
c --cintinc=10000
c --irrlim=20
c --lift=1
c --lftmaxeff=20000000
c --lftmineff=500000
c --lftreleff=6
c --lhbr=1
c --lkhd=1
c --clim=-1
c --mocint=1000
c --move=2
c --log=-1
c --otfs=1
c --phase=0
c --phaseneginit=0
c --plain=0
c --probe=1
c --prbasicmaxeff=100000000
c --prbasicmineff=1000000
c --prbasicreleff=10
c --prbasic=1
c --prbasicroundlim=9
c --queuemergelim=10000
c --queuefactor=833
c --queueinc=20
c --rmincpen=4
c --seed=0
c --smallirr=90
c --smallve=1
c --smallvevars=12
c --randec=1
c --randecint=1000
c --redfixed=0
c --redlbound=0
c --redlexpfac=10
c --redldoutfac=0
c --redloutinc=10000
c --redlinit=1000
c --redlinc=1000
c --redinoutinc=100
c --redlmininc=10
c --redlmaxinc=200
c --redlminrel=10
c --redlmaxrel=300
c --redlminabs=500
c --redlmaxabs=1000000
c --reduce=1
c --restart=2
c --restartint=5
c --rstinoutinc=110
c --simplify=1
c --simpdelay=100
c --simpen=4
c --sizepen=1000000
c --sizemaxpen=3
c --sortlits=0
c --syncint=111111
c --termint=122222
c --ternres=1
c --ternresrtc=0
c --trnrmineff=4000000
c --trnrmaxeff=40000000
c --trnreleff=10
c --transred=1
c --trdmineff=100000
c --trdmaxeff=2000000
c --trdreleff=10
c --unhide=1
c --unhdextstamp=1
c --unhdhbr=0
c --unhdmaxeff=20000000
c --unhdmineff=1000000
c --unhdreleff=4
c --unhdlnpr=3
c --unhdroundlim=5
c --verbose=1
c --witness=1
c [limits] no conflict limit
c [limits] simplification delayed by 100 to 100 conflicts
c 
c  seconds         irredundant          redundant clauses agility   height
c          variables clauses conflicts large binary ternary    glue         MB
c 
c *    0.0  121606   506421         0       0      0     0  64  0.0   0.0   42
c [cut-width] 167516, max 265115, min4 107032 at 75%, min10 35345 at 89%
c [decision-order] bias 1, old 1
c [queue-schedule-all-variables]
c s    0.0  121606   506421         0       0      0     0  64  0.0   0.0   42
c [simplification-1] limit hit at 100 conflicts
c [simplification-1] simplification penalty of 4
c [ternres-1] limit 4000000 with penalty 0 = 0 + 0
c [ternres-1] all 121606 free variables schedulable
c [ternres-1] 0 ternary resolvents (0 bin, 0 trn)
c [ternres-1] 23275 variables remain 19% (98331 retained)
c [gauss-1] limit 2000000 penalty 0 = 0 + 0
c [gauss-1] extracted 169055 xors of average arity 2.0
c [gauss-1] connected 338114 occurrences of 110061 variables (average 3.1)
c [gauss-1] limit 2000000 penalty 0 = 0 + 0
c d    0.7   55641   249806       100     100      0     0  75  4.8 507.4   20
c [gauss-1] exported 0 unary, 5 binary and 0 ternary equations
c G    0.7   55641   249806       100     100      0     0  75  4.8 507.4   20
c [basicprobe-1] limit 1000000 penalty 0 = 0 + 0
c [basicprobe-1-0] 4474 probes remain 8% after last round
c [basicprobe-1-0] 2 units = 2 failed (100%) + 0 lifted (0%)
c [basicprobe-1-0] removed 2 variables, found 5088 hbrs
c p    0.9   55639   249806       100     100   5088     0  75  4.8 507.4   25
c [cgrclsr-1] limit 200000 penalty 0 = 0 + 0
c [cgrclsr-1] all 55639 free variables schedulable
c [cgrclsr-1] fully completed congruence closure
c [lift-1] limit 500000 with penalty 0 = 0 + 0
c [lift-1] using 55639 probes 100%
c [lift-1] 55605 variables remain 100% (32 retained)
c [lift-1] removed 2 variables
c ^    1.1   55637   249787       100     100   5269     0  75  4.8 507.4   21
c [cliff-1] limit of 10000000 steps penalty 0 = 0 + 0
c [cliff-1] failed 0, lifted 4
c K    1.5   55633   249787       100     100  24215     0  75  4.8 507.4   25
c [unhide-1] limit 1000000 with penalty 0 = 0 + 0
c [unhide-1-1] 0 units, 0 failed, 18484 tauts, 0 hbrs, 63 literals
c u    1.6   55633   231285       100     100  24215     0  75  4.8 507.4   25
c [transred-1] limit 100000 with penalty 0 = 0 + 0
c t    1.6   55633   231284       100     100  24207     0  75  4.8 507.4   25
c [block-1] scheduling all variables this time
c [block-1] scheduled 55633 variables 100%
c [block-1] limit of 10000000 steps penalty 0 = 0 + 0
c [block-1] fully completed blocked clause elimination
c [block-1] transition to [ all 0 rem 0 ] state
c [block-1] eliminated 4800 blocked clauses
c k    1.7   55633   226484       100     100  24207  4800  75  4.8 507.4   21
c [cce-1] scheduling all variables this time
c [cce-1] limit of 10000000 steps penalty 0 = 0 + 0
c [cce-1] incomplete covered clause elimination 48827 not tried 88%
c [cce-1] transition to [ all 1 rem 1 ] state
c [cce-1] eliminated 35 covered clauses
c E    2.1   55632   226449       100     100  30321  4800  75  4.8 507.4   21
c [elim-1] scheduling all variables this time
c [elim-1] scheduled 55632 variables 100%
c [elim-1] limit of 5000000 steps penalty 0 = 0 + 0
c [elim-1] incomplete variable elimination 40772 not tried 73%
c [elim-1] transition to [ all 1 rem 1 ] state
c [elim-1] eliminated 6250 = 11% variables out of 55632
c e    3.0   49382   222908       100      39  11892   642  75  4.8 507.4   20
c [phase-1] phase bias: 2117 positive 18%, 9976 negative 82%
c [simplification-1] removed 72224 variables 59%
c [simplification-1] limit increments divided by 30
c [simplification-1] arithmetic increase of conflict limit interval by 333
c [simplification-1] new irredundant limit 2226767
c [simplification-1] new conflict limit 433
c [simplification-1] simplification penalty reduced to 3
c R    3.1   49382   222908       408     342  11892   647  22 15.0 1150.0   25
c [simplification-2] limit hit at 433 conflicts
c [simplification-2] simplification penalty of 3
c [ternres-2] limit 2000000 with penalty 1 = 1 + 0
c [ternres-2] 9419 schedulable variables 19%
c [ternres-2] 3 ternary resolvents (0 bin, 3 trn)
c [ternres-2] fully completed ternary resolution
c T    3.2   49382   222908       433     361  11893   655  22 14.3 1048.0   25
c [gauss-2] limit 2000000 penalty 0 = 0 + 0
c [gauss-2] extracted 1100 xors of average arity 3.0
c [gauss-2] connected 3300 occurrences of 1689 variables (average 2.0)
c [gauss-2] limit 2000000 penalty 0 = 0 + 0
c [gauss-2] fully completed
c [gauss-2] exported 0 unary, 0 binary and 0 ternary equations
c G    3.3   49382   222908       433     361  11893   655  22 14.3 1048.0   21
c [basicprobe-2] limit 1000000 penalty 0 = 0 + 0
c [basicprobe-2-0] 4044 probes remain 8% after last round
c [basicprobe-2-0] removed 0 variables, found 407 hbrs
c p    3.4   49382   222908       433     361  12297   654  22 14.3 1048.0   25
c [cgrclsr-2] limit 100000 penalty 1 = 1 + 0
c [cgrclsr-2] all 49382 free variables schedulable
c [cgrclsr-2] fully completed congruence closure
c [lift-2] limit 500000 with penalty 0 = 0 + 0
c [lift-2] using 49356 probes 100%
c [lift-2] 49321 variables remain 100% (61 retained)
c [cliff-2] limit of 10000000 steps penalty 0 = 0 + 0
c [cliff-2] failed 0, lifted 0
c [unhide-2] limit 1000000 with penalty 0 = 0 + 0
c [unhide-2-2] 0 units, 0 failed, 1588 tauts, 0 hbrs, 193 literals
c u    4.0   49382   222901       433     359  11757   653  22 14.3 1048.0   25
c [transred-3] limit 100000 with penalty 0 = 0 + 0
c t    4.0   49382   222899       433     359  11747   653  22 14.3 1048.0   25
c [block-2] scheduling all variables this time
c [block-2] scheduled 49382 variables 100%
c [block-2] limit of 10000000 steps penalty 0 = 0 + 0
c [block-2] fully completed blocked clause elimination
c [block-2] transition to [ all 0 rem 0 ] state
c [block-2] eliminated 2 blocked clauses
c k    4.1   49382   222897       433     359  11749   653  22 14.3 1048.0   21
c [cce-2] 45929 variables 93% will be scheduled this time
c [cce-2] limit of 10000000 steps penalty 0 = 0 + 0
c [cce-2] 45468 variables 92% remain to be tried next time
c [cce-2] transition to [ all 0 rem 1 ] state
c [cce-2] eliminated 302 covered clauses
c E    4.5   49381   222595       433     359  12177   653  22 14.3 1048.0   21
c [elim-2] 40732 variables 82% will be scheduled this time
c [elim-2] scheduled 40732 variables 82%
c [elim-2] limit of 5000000 steps penalty 0 = 0 + 0
c [elim-2] 30640 variables 62% remain to be tried next time
c [elim-2] transition to [ all 0 rem 1 ] state
c [elim-2] eliminated 1138 = 2% variables out of 49381
c e    5.4   48243   222094       433     355   8440   652  22 14.3 1048.0   21
c [phase-2] phase bias: 15 positive 83%, 3 negative 17%
c [simplification-2] removed 1139 variables 2%
c [simplification-2] limit increments divided by 2
c [simplification-2] arithmetic increase of conflict limit interval by 5000
c [simplification-2] new irredundant limit 2226767
c [simplification-2] new conflict limit 5766
c [simplification-2] simplification penalty reduced to 2
c R    5.6   48243   222094       982     814   8464   709   7  9.5 524.4   25
c -    5.7   48243   222094      1214     504   8470   738   5  8.8 410.6   25
c 
c  seconds         irredundant          redundant clauses agility   height
c          variables clauses conflicts large binary ternary    glue         MB
c 
c R    6.0   48243   222094      2306    1437   8501   855   9  8.1 333.9   25
c -    6.5   48243   222094      4159    1512   8577  1038   5  7.3 266.1   25
c R    6.7   48243   222094      5218    2554   8579  1053   8 10.2 261.7   26
c [simplification-3] limit hit at 5766 conflicts
c [simplification-3] simplification penalty of 2
c [ternres-3] limit 4000000 with penalty 0 = 0 + 0
c [ternres-3] all 48243 free variables schedulable
c [ternres-3] 112 ternary resolvents (0 bin, 112 trn)
c [ternres-3] 1296 variables remain 3% (46947 retained)
c T    6.9   48243   222094      5766    3000   8612  1225   4  9.8 246.4   26
c [gauss-3] limit 1000000 penalty 1 = 1 + 0
c [gauss-3] extracted 543 xors of average arity 3.0
c [gauss-3] connected 1629 occurrences of 1271 variables (average 1.3)
c [gauss-3] limit 1000000 penalty 1 = 1 + 0
c [gauss-3] fully completed
c [gauss-3] exported 0 unary, 0 binary and 0 ternary equations
c G    7.0   48243   222094      5766    3000   8612  1225   4  9.8 246.4   21
c [basicprobe-3] limit 500000 penalty 1 = 1 + 0
c [basicprobe-3-0] 3697 probes remain 8% after last round
c [basicprobe-3-0] removed 0 variables, found 351 hbrs
c p    7.1   48243   222094      5766    3000   8963  1218   4  9.8 246.4   25
c [cgrclsr-3] limit 69258 based on 554064 irredundant literals
c [cgrclsr-3] all 48243 free variables schedulable
c [cgrclsr-3] fully completed congruence closure
c [lift-3] limit 250000 with penalty 1 = 1 + 0
c [lift-3] using 48183 probes 100%
c [lift-3] 48165 variables remain 100% (78 retained)
c [cliff-3] limit of 5000000 steps penalty 1 = 1 + 0
c [cliff-3] failed 0, lifted 0
c [unhide-3] limit 1000000 with penalty 0 = 0 + 0
c [unhide-3-3] 0 units, 0 failed, 1651 tauts, 0 hbrs, 2520 literals
c u    7.5   48243   220440      5766    2983   9336  1212   4  9.8 246.4   25
c [transred-5] limit 439163 with penalty 0 = 0 + 0
c t    7.6   48243   220435      5766    2983   9318  1212   4  9.8 246.4   25
c [block-3] scheduling all variables this time
c [block-3] scheduled 48243 variables 100%
c [block-3] limit of 10000000 steps penalty 0 = 0 + 0
c [block-3] fully completed blocked clause elimination
c [block-3] transition to [ all 0 rem 0 ] state
c [block-3] eliminated 0 blocked clauses
c [cce-3] scheduling all variables this time
c [cce-3] limit of 10000000 steps penalty 0 = 0 + 0
c [cce-3] 44094 variables 91% remain to be tried next time
c [cce-3] transition to [ all 1 rem 1 ] state
c [cce-3] eliminated 228 covered clauses
c E    8.0   48243   220207      5766    2983   9553  1210   4  9.8 246.4   21
c [elim-3] scheduling all variables this time
c [elim-3] scheduled 48243 variables 100%
c [elim-3] limit of 5000000 steps penalty 0 = 0 + 0
c [elim-3] 30139 variables 62% remain to be tried next time
c [elim-3] transition to [ all 1 rem 1 ] state
c [elim-3] eliminated 260 = 1% variables out of 48243
c e    9.0   47983   219987      5766    2954   9059  1206   4  9.8 246.4   21
c [simplification-3] removed 260 variables 0%
c [simplification-3] no reduction of limit increments
c [simplification-3] arithmetic increase of conflict limit interval by 10000
c [simplification-3] new irredundant limit 2226767
c [simplification-3] new conflict limit 21099
c [simplification-3] simplification penalty reduced to 1
c 1    9.1   47983   219987      6013    3168   9067  1230   6  9.7 246.0   26
c 
c  seconds         irredundant          redundant clauses agility   height
c          variables clauses conflicts large binary ternary    glue         MB
c 
c blkd: 3 bces, 4802 removed, 1975638 resolutions, 5491489 steps
c blkd: 4801 blocking literals 1%, 0 pure
c cces: 3 cces, 556 eliminated, 556 ate 100%, 0 abce 0%
c cces: 20772 probed, 1 lifted, 2 failed
c clff: 3 cliffs, 4 lifted, 0 failed
c clff: 9950 decisions, 25016923 steps
c clls: 1 sat, 0 simp, 0 freeze, 0 melt
c clls: 2118713 add, 0 assume,, 0 deref, 0 failed
c clls: 0 cassume, 0 mosat
c coll: 19 gcs, 0 rescored clauses
c cgrs: 3 count, 369267 esteps, 96044 csteps
c cgrs: 0 eqs, 0 units
c cgrs: 0 matched (0 ands 0%, 0 xors 0%, 0 ites 0%)
c cgrs: 0 simplified (0 ands 0%, 0 xors 0%, 0 ites 0%)
c cgrs: 2577 extracted (2172 ands 84%, 405 xors 16%, 0 ites 0%)
c dcps: 4 decompositions, 65965 equivalent 30%
c decs: 82115 decision, 82 random 0.100%
c decs: 19508 flipped 23.757% (in 40 phases)
c elms: 3 elims, 7648 eliminated 3%
c elms: 7648 small 100%, 0 large 0%
c elms: 36309 tried small, 7648 succeeded 21%, 28661 failed 79%
c elms: 0 subsumed, 0 strengthened, 0 blocked
c elms: 480966 copies, 335736 resolutions, 976530 ipos
c elms: 0 subchks, 0 strchks
c frcs: 0 computed, 21.1 - 78.9 average min-cut range
c gaus: 3 extractions, 170698 extracted, 2.0 size, 3 max
c gaus: exported 0 units, 5 binary and 0 ternary equations
c gaus: 0 gc, 10000292 steps, 5000146 extr 50%, 2481283 elim 25%
c glue: 9.7 avg, 3.0 scaled avg
c glue: 0 maxredglue=15 (0%)
c lift: 3 phases, 510 probed (170 level1 33%, 340 level2 67%)
c lift: 2 units, 0 equivalences, 0 implications
c hbrs: 32620 hbrs = 32620 trn 100% + 0 lrg 0%, 22 sub 0%
c lrnd: 5956 clauses, 3542 uips 59%, 42.7 length, 9.7 glue
c ints: 317 luby (35592 steps), 0 inout (0 steps)
c mins: 254540 learned lits, 5% minimized
c move: moved 5358, 558 binary 10%, 4800 ternary 90%
c otfs: str 222 dyn (175 red, 47 irr) 57 drv 26%, 165 rst 74%
c otfs: sub 0 dyn (0 red, 0 irr)
c phas: 2 computed, 12310 set, 2132 pos (17%), 10178 neg (83%)
c prbs: 3 basic, 3272 probed, 2 failed, 0 lifted
c prps: 19224183 props, 117 props/dec
c prps: 50% srch, 50% simp, 0% lkhd
c psns: 771771 searches, 159668 hits, 21% hit rate
c queu: 29203 new, 11966 del, 120 maximum priority
c queu: 17220 merged, 16716 collected, 4 gcs
c queu: 6178 deprioritized, 27.5 lines on average
c reds: 2 count, 0 reset, 2 acts 100%, 0 exp 0%
c reds: 2 arithmetic 100%, 2 double 100%
c rmbd: 26 removed, 0 red 0%
c rsts: 274 restarts 87%, 42 skipped 13%
c rsts: 36 kept 13.1% average 42.3%
c simp: 3 count (0 ilim 0%, 0 plim 0%, 3 clim 100%)
c trnr: 3 count, 0 bin, 115 trn, 8760013 steps
c tops: 101495 fixed 45%, 0 iterations
c trds: 6 transitive reductions, 44 removed, 0 failed
c trds: 677 nodes, 947 edges, 644762 steps
c unhd: 3 count, 3 rounds, 3517155 steps
c unhd: 0 non-trivial sccs of average size 0.0
c unhd: 0 units, 0 bin, 0 trn, 0 lrg
c unhd: 0 failed, 0 stamp, 0 lits, 0 bin, 0 trn, 0 lrg
c unhd: 21723 tauts, 1 bin 0%, 511 trn 2%, 43 lrg 0%
c unhd: 21723 tauts, 21168 stamp 97%, 1604 red 7%
c unhd: 0 hbrs, 0 trn 0%, 0 lrg 0%, 0 red 0%
c unhd: 2776 strd, 0 bin 0%, 0 trn 0%, 2776 lrg 100%, 2776 red 100%
c vars: 47983 remaining 22% and 175108 removed 78% out of 223091
c vars: 101495 fixed 45%, 7648 eliminated 3%, 65965 equivalent 30%
c vsts: 89485274 visits, 52% srch, 48% simp, 0% lkhd
c vsts: 4.8 search visits per propagation 7742.9 per conflict
c wchs: 12365371 pushed, 5345116 enlarged, 32 defrags
c 
c scaledglue  added       reduced       forcing      resolved     conflicts
c 
c all      5291 100      1999 100     25066 100     13163 100      1102 100
c 
c  0          0   0         0   0         0   0         0   0         0   0 
c  1         69   1        23   1       512   2       142   1         6   1 
c  2       1907  36       756  38      9333  37      4060  31       332  30 
c  3       1505  28<      610  31<     8365  33<     3731  28<      302  27<
c  4        877  17       302  15      4259  17      2734  21       239  22 
c  5        406   8       180   9      1393   6      1169   9       119  11 
c  6        207   4        88   4       625   2       563   4        48   4 
c  7        169   3        32   2       335   1       423   3        40   4 
c  8        146   3         8   0       237   1       332   3        15   1 
c  9          5   0         0   0         7   0         9   0         1   0 
c 10          0   0         0   0         0   0         0   0         0   0 
c 11          0   0         0   0         0   0         0   0         0   0 
c 12          0   0         0   0         0   0         0   0         0   0 
c 13          0   0         0   0         0   0         0   0         0   0 
c 14          0   0         0   0         0   0         0   0         0   0 
c 15          0   0         0   0         0   0         0   0         0   0 
c 
c avg             3.3           3.1           3.0           3.4           3.5
c std             1.5           1.3           1.2           1.5           1.4
c 
c 82115 decisions, 6013 conflicts, 660.1 conflicts/sec
c 19224183 propagations, 2.1 megaprops/sec
c 9.1 seconds, 47.8 MB
c 
c    0.236   3% analysis
c    0.372   4% block
c    0.056   1% bump
c    0.000   0% card
c    1.060  12% cce
c    0.812   9% cliff
c    0.012   0% cutwidth
c    0.056   1% decide
c    0.000   0% force
c    0.784   9% gc
c    0.312   3% cgrclsr
c    0.380   4% decomp
c    0.216   2% defrag
c    2.796  31% elim
c    0.860   9% gauss
c    0.300   3% lift
c    0.052   1% mincls
c    0.044   0% phase
c    0.144   2% probe
c    0.008   0% reduce
c    0.092   1% restart
c    0.120   1% ternres
c    0.032   0% transred
c    0.324   4% unhide
c ==================================
c    0.020   0% preprocessing     0%
c    7.560  83% inprocessing    100%
c ==================================
c    7.580  83% simplifying
c    0.000   0% lookahead
c    1.520  17% search
c ==================================
c    9.109 100% all
c
s SATISFIABLE
